c "251995.clq"
p edge 100 1344
e 1 17
e 1 18
e 1 19
e 1 21
e 1 23
e 1 24
e 1 25
e 1 26
e 1 28
e 1 36
e 1 42
e 1 52
e 1 63
e 1 75
e 1 78
e 1 80
e 1 88
e 1 94
e 1 95
e 2 17
e 2 18
e 2 19
e 2 20
e 2 22
e 2 24
e 2 27
e 2 28
e 2 30
e 2 32
e 2 33
e 2 37
e 2 40
e 2 41
e 2 43
e 2 45
e 2 46
e 2 47
e 2 48
e 2 53
e 2 54
e 2 58
e 2 60
e 2 75
e 2 79
e 2 87
e 2 88
e 2 96
e 3 17
e 3 18
e 3 19
e 3 21
e 3 22
e 3 23
e 3 24
e 3 26
e 3 28
e 3 30
e 3 31
e 3 32
e 3 34
e 3 35
e 3 37
e 3 38
e 3 41
e 3 42
e 3 47
e 3 49
e 3 51
e 3 60
e 3 71
e 3 80
e 3 89
e 4 17
e 4 18
e 4 19
e 4 20
e 4 21
e 4 22
e 4 23
e 4 24
e 4 25
e 4 30
e 4 31
e 4 32
e 4 34
e 4 37
e 4 39
e 4 40
e 4 44
e 4 47
e 4 51
e 4 53
e 4 58
e 4 62
e 4 64
e 4 65
e 4 72
e 4 73
e 4 74
e 4 77
e 4 78
e 4 82
e 4 84
e 4 87
e 4 95
e 4 96
e 4 100
e 5 17
e 5 19
e 5 23
e 5 34
e 5 36
e 5 43
e 5 46
e 5 48
e 5 53
e 5 62
e 5 63
e 5 64
e 5 68
e 5 75
e 5 85
e 5 92
e 5 96
e 6 17
e 6 18
e 6 20
e 6 21
e 6 22
e 6 24
e 6 30
e 6 31
e 6 37
e 6 40
e 6 41
e 6 42
e 6 45
e 6 48
e 6 52
e 6 54
e 6 62
e 6 63
e 6 66
e 6 71
e 6 73
e 6 75
e 6 77
e 6 92
e 6 97
e 7 17
e 7 18
e 7 19
e 7 20
e 7 21
e 7 24
e 7 26
e 7 27
e 7 28
e 7 29
e 7 36
e 7 37
e 7 38
e 7 41
e 7 42
e 7 55
e 7 58
e 7 67
e 7 74
e 7 75
e 7 84
e 7 87
e 7 88
e 7 92
e 7 93
e 7 97
e 7 100
e 8 17
e 8 18
e 8 19
e 8 20
e 8 21
e 8 22
e 8 23
e 8 24
e 8 25
e 8 27
e 8 30
e 8 31
e 8 35
e 8 36
e 8 43
e 8 46
e 8 54
e 8 57
e 8 60
e 8 67
e 8 68
e 8 90
e 8 92
e 8 98
e 9 17
e 9 18
e 9 19
e 9 20
e 9 21
e 9 22
e 9 23
e 9 25
e 9 27
e 9 29
e 9 31
e 9 33
e 9 35
e 9 37
e 9 38
e 9 41
e 9 42
e 9 43
e 9 46
e 9 52
e 9 53
e 9 65
e 9 67
e 9 69
e 9 74
e 9 76
e 9 85
e 9 99
e 10 17
e 10 18
e 10 19
e 10 20
e 10 21
e 10 22
e 10 23
e 10 24
e 10 25
e 10 26
e 10 28
e 10 29
e 10 30
e 10 33
e 10 41
e 10 45
e 10 51
e 10 64
e 10 65
e 10 66
e 10 68
e 10 95
e 10 98
e 10 99
e 11 17
e 11 18
e 11 19
e 11 20
e 11 22
e 11 23
e 11 24
e 11 25
e 11 26
e 11 29
e 11 31
e 11 32
e 11 35
e 11 40
e 11 46
e 11 52
e 11 55
e 11 56
e 11 61
e 11 62
e 11 63
e 11 65
e 11 68
e 11 76
e 11 77
e 12 17
e 12 18
e 12 19
e 12 20
e 12 24
e 12 25
e 12 27
e 12 28
e 12 32
e 12 33
e 12 34
e 12 35
e 12 38
e 12 65
e 12 74
e 12 80
e 12 82
e 12 88
e 12 89
e 12 97
e 13 17
e 13 18
e 13 19
e 13 20
e 13 21
e 13 22
e 13 23
e 13 24
e 13 26
e 13 27
e 13 29
e 13 30
e 13 31
e 13 32
e 13 35
e 13 36
e 13 37
e 13 42
e 13 43
e 13 46
e 13 48
e 13 55
e 13 59
e 13 70
e 13 71
e 13 73
e 13 81
e 13 86
e 13 90
e 13 91
e 13 97
e 14 17
e 14 18
e 14 19
e 14 20
e 14 21
e 14 22
e 14 26
e 14 27
e 14 32
e 14 34
e 14 38
e 14 43
e 14 45
e 14 54
e 14 55
e 14 64
e 14 78
e 14 84
e 14 92
e 14 97
e 15 17
e 15 18
e 15 20
e 15 21
e 15 22
e 15 23
e 15 25
e 15 26
e 15 28
e 15 29
e 15 34
e 15 35
e 15 36
e 15 37
e 15 39
e 15 42
e 15 45
e 15 47
e 15 49
e 15 50
e 15 51
e 15 53
e 15 57
e 15 60
e 15 79
e 15 80
e 15 83
e 15 92
e 15 93
e 15 97
e 15 100
e 16 17
e 16 18
e 16 19
e 16 20
e 16 21
e 16 23
e 16 25
e 16 26
e 16 27
e 16 28
e 16 29
e 16 32
e 16 33
e 16 37
e 16 38
e 16 39
e 16 44
e 16 45
e 16 50
e 16 52
e 16 55
e 16 59
e 16 60
e 16 65
e 16 67
e 16 69
e 16 70
e 16 77
e 16 80
e 16 81
e 16 82
e 16 87
e 16 88
e 16 90
e 16 95
e 16 100
e 17 18
e 17 19
e 17 20
e 17 21
e 17 22
e 17 23
e 17 24
e 17 25
e 17 26
e 17 27
e 17 28
e 17 29
e 17 30
e 17 31
e 17 32
e 17 33
e 17 34
e 17 36
e 17 38
e 17 39
e 17 40
e 17 41
e 17 42
e 17 44
e 17 49
e 17 52
e 17 54
e 17 55
e 17 56
e 17 57
e 17 58
e 17 59
e 17 63
e 17 64
e 17 65
e 17 67
e 17 69
e 17 71
e 17 76
e 17 77
e 17 79
e 17 83
e 17 84
e 17 85
e 17 94
e 17 95
e 17 96
e 17 98
e 17 99
e 17 100
e 18 19
e 18 20
e 18 21
e 18 22
e 18 23
e 18 27
e 18 28
e 18 29
e 18 30
e 18 31
e 18 32
e 18 34
e 18 35
e 18 36
e 18 39
e 18 42
e 18 45
e 18 49
e 18 50
e 18 52
e 18 53
e 18 54
e 18 61
e 18 63
e 18 65
e 18 66
e 18 70
e 18 72
e 18 73
e 18 76
e 18 79
e 18 80
e 18 84
e 18 86
e 18 89
e 18 93
e 18 96
e 18 99
e 19 20
e 19 21
e 19 22
e 19 23
e 19 25
e 19 26
e 19 27
e 19 28
e 19 29
e 19 30
e 19 31
e 19 32
e 19 33
e 19 34
e 19 35
e 19 36
e 19 37
e 19 40
e 19 41
e 19 42
e 19 44
e 19 45
e 19 46
e 19 47
e 19 48
e 19 49
e 19 52
e 19 55
e 19 56
e 19 57
e 19 58
e 19 59
e 19 60
e 19 61
e 19 62
e 19 65
e 19 67
e 19 69
e 19 70
e 19 73
e 19 78
e 19 80
e 19 90
e 19 96
e 20 21
e 20 22
e 20 23
e 20 24
e 20 25
e 20 27
e 20 29
e 20 31
e 20 32
e 20 33
e 20 36
e 20 37
e 20 39
e 20 40
e 20 42
e 20 44
e 20 47
e 20 53
e 20 54
e 20 57
e 20 58
e 20 59
e 20 60
e 20 64
e 20 69
e 20 71
e 20 73
e 20 76
e 20 82
e 20 86
e 20 92
e 20 93
e 20 97
e 20 100
e 21 22
e 21 23
e 21 24
e 21 25
e 21 26
e 21 28
e 21 29
e 21 30
e 21 31
e 21 33
e 21 36
e 21 39
e 21 41
e 21 43
e 21 45
e 21 46
e 21 49
e 21 50
e 21 51
e 21 52
e 21 53
e 21 54
e 21 59
e 21 60
e 21 62
e 21 63
e 21 65
e 21 70
e 21 74
e 21 77
e 21 79
e 21 81
e 21 83
e 21 89
e 21 90
e 21 96
e 22 24
e 22 25
e 22 26
e 22 27
e 22 28
e 22 29
e 22 30
e 22 31
e 22 33
e 22 34
e 22 35
e 22 36
e 22 37
e 22 38
e 22 41
e 22 42
e 22 44
e 22 46
e 22 49
e 22 51
e 22 52
e 22 55
e 22 56
e 22 57
e 22 61
e 22 63
e 22 83
e 22 88
e 22 89
e 22 94
e 22 99
e 22 100
e 23 24
e 23 25
e 23 26
e 23 30
e 23 31
e 23 33
e 23 34
e 23 35
e 23 36
e 23 38
e 23 39
e 23 40
e 23 41
e 23 42
e 23 49
e 23 50
e 23 51
e 23 54
e 23 56
e 23 57
e 23 60
e 23 64
e 23 66
e 23 69
e 23 79
e 23 80
e 23 82
e 23 86
e 23 88
e 23 89
e 23 90
e 23 91
e 23 92
e 23 94
e 23 95
e 23 97
e 23 99
e 24 25
e 24 26
e 24 27
e 24 28
e 24 29
e 24 30
e 24 33
e 24 37
e 24 39
e 24 40
e 24 42
e 24 44
e 24 46
e 24 50
e 24 52
e 24 56
e 24 59
e 24 61
e 24 64
e 24 68
e 24 69
e 24 71
e 24 75
e 24 76
e 24 77
e 24 81
e 24 85
e 24 94
e 24 97
e 24 99
e 25 26
e 25 27
e 25 28
e 25 29
e 25 30
e 25 32
e 25 33
e 25 34
e 25 35
e 25 39
e 25 44
e 25 45
e 25 47
e 25 48
e 25 49
e 25 50
e 25 51
e 25 53
e 25 54
e 25 55
e 25 56
e 25 57
e 25 58
e 25 67
e 25 69
e 25 70
e 25 71
e 25 74
e 25 76
e 25 79
e 25 84
e 25 93
e 25 95
e 25 96
e 25 99
e 26 27
e 26 34
e 26 35
e 26 36
e 26 38
e 26 39
e 26 41
e 26 42
e 26 44
e 26 49
e 26 50
e 26 62
e 26 68
e 26 72
e 26 73
e 26 84
e 26 87
e 26 88
e 26 90
e 26 95
e 27 28
e 27 29
e 27 30
e 27 32
e 27 34
e 27 35
e 27 39
e 27 40
e 27 43
e 27 44
e 27 45
e 27 48
e 27 49
e 27 55
e 27 60
e 27 66
e 27 67
e 27 71
e 27 75
e 27 76
e 27 78
e 27 81
e 27 84
e 27 85
e 27 88
e 28 31
e 28 37
e 28 38
e 28 39
e 28 40
e 28 41
e 28 43
e 28 44
e 28 47
e 28 48
e 28 56
e 28 60
e 28 61
e 28 63
e 28 64
e 28 68
e 28 70
e 28 77
e 28 78
e 28 79
e 28 80
e 28 81
e 28 83
e 28 85
e 28 86
e 28 87
e 28 88
e 28 89
e 28 95
e 28 97
e 29 32
e 29 33
e 29 36
e 29 38
e 29 39
e 29 40
e 29 42
e 29 44
e 29 47
e 29 48
e 29 49
e 29 50
e 29 54
e 29 56
e 29 57
e 29 64
e 29 73
e 29 80
e 29 81
e 29 85
e 29 87
e 29 89
e 29 91
e 29 95
e 29 96
e 30 31
e 30 32
e 30 33
e 30 36
e 30 37
e 30 38
e 30 39
e 30 41
e 30 43
e 30 48
e 30 52
e 30 55
e 30 62
e 30 76
e 30 87
e 30 95
e 30 96
e 31 40
e 31 44
e 31 46
e 31 48
e 31 50
e 31 54
e 31 61
e 31 62
e 31 63
e 31 64
e 31 66
e 31 69
e 31 70
e 31 72
e 31 77
e 31 85
e 31 89
e 31 98
e 32 33
e 32 34
e 32 38
e 32 39
e 32 43
e 32 45
e 32 47
e 32 48
e 32 50
e 32 54
e 32 56
e 32 60
e 32 61
e 32 68
e 32 72
e 32 82
e 32 87
e 32 98
e 33 34
e 33 35
e 33 43
e 33 49
e 33 50
e 33 51
e 33 57
e 33 61
e 33 65
e 33 68
e 33 81
e 33 83
e 33 90
e 34 35
e 34 37
e 34 38
e 34 40
e 34 43
e 34 44
e 34 45
e 34 51
e 34 53
e 34 55
e 34 56
e 34 59
e 34 62
e 34 64
e 34 69
e 34 70
e 34 71
e 34 72
e 34 73
e 34 80
e 34 81
e 34 83
e 34 84
e 34 90
e 34 92
e 34 94
e 34 98
e 34 99
e 34 100
e 35 38
e 35 40
e 35 41
e 35 43
e 35 46
e 35 47
e 35 50
e 35 53
e 35 56
e 35 57
e 35 58
e 35 59
e 35 62
e 35 65
e 35 66
e 35 67
e 35 74
e 35 75
e 35 76
e 35 78
e 35 80
e 35 84
e 35 85
e 35 86
e 35 87
e 35 88
e 35 100
e 36 44
e 36 48
e 36 52
e 36 61
e 36 66
e 36 69
e 36 70
e 36 73
e 36 74
e 36 79
e 36 81
e 36 82
e 36 83
e 36 98
e 37 40
e 37 43
e 37 44
e 37 45
e 37 51
e 37 52
e 37 57
e 37 59
e 37 66
e 37 71
e 37 77
e 37 80
e 37 81
e 37 84
e 37 88
e 37 89
e 37 94
e 37 98
e 38 41
e 38 45
e 38 46
e 38 47
e 38 54
e 38 56
e 38 57
e 38 59
e 38 74
e 38 81
e 38 93
e 38 94
e 38 99
e 39 43
e 39 47
e 39 49
e 39 51
e 39 53
e 39 54
e 39 58
e 39 64
e 39 67
e 39 69
e 39 74
e 39 77
e 39 78
e 39 82
e 39 94
e 39 100
e 40 46
e 40 47
e 40 50
e 40 55
e 40 59
e 40 63
e 40 65
e 40 66
e 40 67
e 40 69
e 40 70
e 40 72
e 40 83
e 40 86
e 40 91
e 40 99
e 41 46
e 41 48
e 41 51
e 41 53
e 41 55
e 41 61
e 41 64
e 41 66
e 41 72
e 41 75
e 41 77
e 41 78
e 41 82
e 41 83
e 41 85
e 41 86
e 41 90
e 41 92
e 42 45
e 42 48
e 42 50
e 42 51
e 42 53
e 42 58
e 42 61
e 42 62
e 42 66
e 42 67
e 42 72
e 42 73
e 42 84
e 42 90
e 42 92
e 42 98
e 43 46
e 43 49
e 43 53
e 43 56
e 43 59
e 43 61
e 43 64
e 43 65
e 43 73
e 43 83
e 43 87
e 44 47
e 44 56
e 44 69
e 44 75
e 44 86
e 45 47
e 45 50
e 45 52
e 45 55
e 45 59
e 45 72
e 45 74
e 45 76
e 45 78
e 45 79
e 45 90
e 45 93
e 45 96
e 46 51
e 46 53
e 46 55
e 46 57
e 46 58
e 46 72
e 46 73
e 46 77
e 46 98
e 47 48
e 47 49
e 47 57
e 47 62
e 47 66
e 47 69
e 47 71
e 47 82
e 47 83
e 47 84
e 48 51
e 48 58
e 48 63
e 48 67
e 48 72
e 48 76
e 48 78
e 48 79
e 48 82
e 48 86
e 48 91
e 49 57
e 49 61
e 49 67
e 49 71
e 49 72
e 49 73
e 49 82
e 49 83
e 49 84
e 49 85
e 49 86
e 49 88
e 49 91
e 50 58
e 50 60
e 50 68
e 50 74
e 50 75
e 50 80
e 50 83
e 50 97
e 51 52
e 51 56
e 51 62
e 51 79
e 51 85
e 51 89
e 51 93
e 51 98
e 52 54
e 52 58
e 52 76
e 52 80
e 52 85
e 52 96
e 52 97
e 53 87
e 53 88
e 53 89
e 54 60
e 54 78
e 54 82
e 54 91
e 54 93
e 54 94
e 54 99
e 54 100
e 55 58
e 55 62
e 55 65
e 55 68
e 55 74
e 55 90
e 55 91
e 55 93
e 56 58
e 56 68
e 56 70
e 56 71
e 56 75
e 56 86
e 56 100
e 57 59
e 57 60
e 57 63
e 57 66
e 57 68
e 57 70
e 57 72
e 57 74
e 57 82
e 57 84
e 57 91
e 57 96
e 57 99
e 58 59
e 58 60
e 58 62
e 58 64
e 58 65
e 58 69
e 58 86
e 59 61
e 59 72
e 59 76
e 59 79
e 59 81
e 59 82
e 59 92
e 60 61
e 60 63
e 60 68
e 60 77
e 60 92
e 60 94
e 60 98
e 60 99
e 61 63
e 61 66
e 61 70
e 61 75
e 61 80
e 61 88
e 61 91
e 61 93
e 61 98
e 62 63
e 62 66
e 62 68
e 62 70
e 62 71
e 62 74
e 62 75
e 62 77
e 62 79
e 62 87
e 62 94
e 62 98
e 63 67
e 63 70
e 63 89
e 63 97
e 64 73
e 64 74
e 64 75
e 64 78
e 64 81
e 64 91
e 64 96
e 65 67
e 65 72
e 65 87
e 65 89
e 65 91
e 65 97
e 65 100
e 66 75
e 66 78
e 66 82
e 66 92
e 67 68
e 67 71
e 67 76
e 67 77
e 67 86
e 67 89
e 67 91
e 67 92
e 67 93
e 67 96
e 68 71
e 68 81
e 69 90
e 70 76
e 70 79
e 70 85
e 70 99
e 71 73
e 71 83
e 71 84
e 72 88
e 73 78
e 73 89
e 73 100
e 74 85
e 74 95
e 74 97
e 75 78
e 75 81
e 75 96
e 75 99
e 76 79
e 76 94
e 77 86
e 77 93
e 77 97
e 78 87
e 79 95
e 80 94
e 81 85
e 81 90
e 81 93
e 82 83
e 82 90
e 82 95
e 84 93
e 85 86
e 85 87
e 85 93
e 85 94
e 86 91
e 86 95
e 86 98
e 88 91
e 88 98
e 89 94
e 89 95
e 90 91
e 90 92
e 96 100
e 99 100
